c --- [ banner ] -------------------------------------------------------------
c 
c CaDiCaL Radically Simplified CDCL SAT Solver
c Copyright (c) 2016-2021 A. Biere, M. Fleury, N. Froleyks
c 
c Version 1.5.2 ca9bff05c11bde5eae4912f9932871d1527e61d8
c g++ (GCC) 9.3.0 -Wall -Wextra -O3 -DNDEBUG
c Sun May 1 02:23:23 EDT 2022 Linux gra-login1 3.10.0-1160.59.1.el7.x86_64 x86_64
c 
c --- [ limit ] --------------------------------------------------------------
c 
c setting conflict limit to 200000 conflicts (due to '200000')
c 
c --- [ parsing input ] ------------------------------------------------------
c 
c reading DIMACS file from '12.cubes870.adj'
c opening file to read '12.cubes870.adj'
c found 'p cnf 5320 924210' header
c parsed 924210 clauses in 8.73 seconds process time
c closing file '12.cubes870.adj'
c after reading 686668116 bytes 654.9 MB
c 
c --- [ options ] ------------------------------------------------------------
c 
c all options are set to their default value
c 
c --- [ solving ] ------------------------------------------------------------
c 
c time measured in process time since initialization
c 
c  seconds   reductions  redundant  irredundant
c          MB    restarts       trail      variables
c           level   conflicts       glue        remaining
c 
c *  8.73 691  0 0   0    0    0  0% 0 923580 4013 75%
c {  9.49 727  0 0   0    0    0  0% 0 923580 4013 75%
c i 10.09 737 142 0   0   60   49 42% 7 923580 4012 75%
c i 10.10 737 136 0   0   63   50 42% 7 923580 4011 75%
c i 10.17 738 117 0   0   79   62 42% 6 923580 3878 73%
c i 10.17 738 115 0   0   80   62 42% 6 923580 3857 72%
c i 10.42 742 98 0   1  110   80 44% 7 923580 3840 72%
c i 10.42 742 97 0   2  111   80 44% 7 923580 3839 72%
c i 10.42 742 96 0   2  112   80 45% 7 923580 3838 72%
c i 10.69 744 77 0  18  173  118 44% 10 923580 3837 72%
c i 10.74 745 78 0  21  187  128 44% 9 923580 3791 71%
c i 10.90 746 75 0  29  222  158 45% 13 923580 3788 71%
c i 10.95 747 73 0  33  240  171 46% 14 923580 3787 71%
c i 10.96 747 73 0  33  242  172 45% 14 923580 3786 71%
c - 13.26 695 73 1  48  300  205 45% 16 104967 3786 71%
c i 13.31 678 72 1  49  304  205 45% 16 104967 3785 71%
c i 13.31 678 72 1  49  305  205 45% 16 104967 3775 71%
c i 13.33 678 73 1  51  311  210 45% 16 104967 3774 71%
c i 13.35 678 73 1  52  315  213 45% 17 104967 3773 71%
c i 13.39 678 74 1  59  339  235 46% 19 104967 3770 71%
c 
c  seconds   reductions  redundant   irredundant
c          MB    restarts       trail       variables
c           level   conflicts       glue         remaining
c 
c i 13.42 678 69 1  68  381  248 46% 18 104967 3769 71%
c i 13.58 678 63 1  87  504  353 48% 20 104967 3768 71%
c i 13.58 678 63 1  87  505  353 48% 20 104967 3767 71%
c i 13.83 678 60 1 125  716  529 48% 22 104967 3766 71%
c i 14.10 678 64 1 156  882  678 49% 26 104967 3765 71%
c - 14.26 707 66 2 163  913  626 49% 27 84394 3765 71%
c i 14.33 707 64 2 178  993  693 49% 26 84394 3764 71%
c } 14.33 707 65 2 178 1002  700 49% 27 84394 3764 71%
c [ 14.33 707  0 2 178 1002  700  0% 0 84394 3764 71%
c O 14.34 707  3 2 178 1003  701 33% 3 84394 3764 71%
c i 14.35 707 21 2 178 1053  742 56% 17 84394 3763 71%
c i 14.38 707 21 2 178 1256  889 58% 18 84394 3762 71%
c - 14.52 707 22 3 178 1814 1055 57% 18 84386 3762 71%
c i 14.55 707 21 3 178 1934 1145 57% 18 84386 3761 71%
c ] 14.73 707 24 3 179 3002 1924 56% 20 84386 3761 71%
c { 14.73 707 65 3 179 3002 1924 49% 27 84386 3761 71%
c F 14.80 707 65 3 180 3004 1926 23% 27 84383 3761 71%
c - 14.83 678 65 4 183 3014 1388 24% 27 84383 3761 71%
c i 15.03 678 52 4 193 3633 1838 36% 25 84383 3760 71%
c i 15.26 678 48 4 210 4073 2198 34% 24 84383 3759 71%
c 
c  seconds   reductions  redundant   irredundant
c          MB    restarts       trail      variables
c           level   conflicts       glue        remaining
c 
c - 15.48 679 46 5 215 4516 1776 34% 24 84377 3759 71%
c 2 15.70 679 42 5 215 5000 4018 35% 23 84316 3757 71%
c p 16.20 679 42 5 215 5000 8338 35% 23 84316 3730 70%
c d 16.24 679 42 5 215 5000 8334 35% 23 84230 3729 70%
c # 16.76 679 42 5 297 6006 9071 35% 23 84230 3729 70%
c - 17.09 679 44 6 360 6317 2499 34% 24 84230 3729 70%
c } 17.44 679 44 6 403 7003 3040 34% 24 84230 3729 70%
c [ 17.44 679 24 6 403 7003 3040 79% 20 84230 3729 70%
c - 17.75 679 24 7 404 8417 2910 62% 19 84230 3729 70%
c I 18.19 679 23 7 405 10008 3965 54% 19 84230 3729 70%
c - 18.53 679 23 8 406 10818 3387 51% 19 84230 3729 70%
c - 19.56 679 25 9 408 13519 3797 46% 20 84230 3729 70%
c p 20.20 679 25 9 408 15000 11707 44% 20 84230 3729 70%
c ] 20.22 679 25 9 408 15005 11709 44% 20 84230 3729 70%
c { 20.22 679 44 9 408 15005 11709 34% 24 84230 3729 70%
c B 20.24 679 44 9 408 15010 11712 34% 24 84230 3729 70%
c s 20.82 679 46 9 504 15693 12162 34% 25 82631 3729 70%
c v 21.46 679 46 9 504 15693 12162 34% 25 82618 3729 70%
c t 21.49 679 46 9 504 15693 12152 34% 25 82560 3729 70%
c e 21.71 680 46 9 504 15693 6753 34% 25 77449 1053 20%
c 
c  seconds   reductions   redundant   irredundant
c          MB    restarts        trail      variables
c           level    conflicts       glue        remaining
c 
c s 21.79 680 46 9 504 15693 6753 34% 25 77294 1053 20%
c - 22.52 681 47 10 606 16519 4627 55% 26 77294 1053 20%
c - 23.85 680 42 11 802 19820 5155 60% 24 77294 1053 20%
c W 24.38 680 42 11 866 21011 6085 61% 24 77294 1053 20%
c - 25.29 680 40 12 1006 23420 5968 61% 24 77294 1053 20%
c - 26.41 680 38 13 1131 27324 6394 62% 24 77294 1053 20%
c F 26.52 680 37 13 1135 28015 6876 62% 23 77294 1053 20%
c 3 26.94 680 36 13 1189 30001 8707 62% 23 77294 1053 20%
c 2 26.95 680 36 13 1189 30001 8729 62% 23 77294 1053 20%
c p 27.22 680 36 13 1189 30001 10746 62% 23 77294 1051 20%
c } 27.40 680 35 13 1202 31008 11524 62% 22 77294 1051 20%
c [ 27.40 680 25 13 1202 31008 11524 157% 20 77294 1051 20%
c - 27.55 680 25 14 1202 31529 6583 152% 20 77288 1051 20%
c B 28.27 680 24 14 1205 36020 9568 124% 20 77288 1051 20%
c - 28.30 680 24 15 1205 36030 6707 124% 20 77288 1051 20%
c s 29.49 680 28 15 1208 40485 9959 110% 23 77069 1051 20%
c v 30.07 680 28 15 1208 40485 9959 110% 23 77045 1051 20%
c e 30.30 682 28 15 1208 40485 9959 110% 23 77045 1049 20%
c s 30.42 682 28 15 1208 40485 9959 110% 23 76966 1049 20%
c - 30.80 682 28 16 1208 40830 7285 109% 23 76966 1049 20%
c 
c  seconds   reductions      redundant    irredundant
c          MB     restarts          trail       variables
c           level      conflicts         glue        remaining
c 
c W 31.87 682 29 16 1209 45021 10199 100% 24 76966 1049 20%
c - 32.13 682 29 17 1209 45934 7806 99% 24 76966 1049 20%
c p 33.04 682 32 17 1210 50004 13492 93% 26 76966 1049 20%
c - 33.46 682 33 18 1210 51334 8357 92% 27 76966 1049 20%
c O 34.39 682 33 18 1211 55026 10639 88% 27 76966 1049 20%
c - 34.71 682 32 19 1213 57037 8463 86% 27 76966 1049 20%
c ] 35.50 682 31 19 1217 63015 12497 82% 26 76966 1049 20%
c { 35.50 682 35 19 1217 63015 12497 62% 22 76966 1049 20%
c - 35.53 682 35 20 1217 63037 8609 62% 22 76966 1049 20%
c B 36.09 682 33 20 1262 66029 10769 62% 22 76966 1049 20%
c - 36.88 682 32 21 1386 69338 9118 62% 21 76966 1049 20%
c p 38.58 682 31 21 1604 75005 15728 62% 21 76966 1048 20%
c - 39.18 682 31 22 1748 75938 9737 62% 21 76963 1048 20%
c s 40.09 682 32 22 1919 77668 11014 62% 22 76820 1048 20%
c v 40.58 682 32 22 1919 77668 11014 62% 22 76816 1048 20%
c e 40.82 682 32 22 1919 77668 11012 62% 22 76811 1043 20%
c s 41.00 682 32 22 1919 77668 11012 62% 22 76760 1043 20%
c W 41.52 682 32 22 1930 78030 11240 62% 22 76760 1043 20%
c - 42.33 682 30 23 1931 82838 10435 63% 21 76760 1043 20%
c - 43.50 682 28 24 2038 90038 10535 63% 20 76760 1043 20%
c 
c  seconds   reductions      redundant   irredundant
c          MB     restarts          trail      variables
c           level      conflicts        glue        remaining
c 
c # 43.66 682 28 24 2050 91031 11079 63% 20 76760 1043 20%
c - 45.28 682 28 25 2362 97538 11309 63% 20 76760 1043 20%
c p 47.17 682 27 25 2638 105008 19146 63% 20 76760 1043 20%
c B 47.21 682 27 25 2638 105035 19165 63% 20 76760 1043 20%
c - 47.28 682 27 26 2649 105339 11560 63% 20 76760 1043 20%
c - 49.62 682 27 27 3071 113439 11940 63% 20 76760 1043 20%
c W 51.09 682 26 27 3080 120041 15653 63% 19 76760 1043 20%
c - 51.41 682 25 28 3089 121839 11724 63% 19 76760 1043 20%
c } 52.17 682 24 28 3109 127019 14870 62% 19 76760 1043 20%
c [ 52.17 682 31 28 3109 127019 14870 82% 26 76760 1043 20%
c - 52.77 682 30 29 3109 130540 12759 81% 25 76760 1043 20%
c B 53.83 682 30 29 3113 136042 16881 78% 25 76760 1043 20%
c - 54.55 682 29 30 3116 139540 14296 77% 24 76760 1043 20%
c p 54.84 682 29 30 3116 140008 17855 77% 24 76760 1043 20%
c - 56.66 682 29 31 3117 148842 14936 75% 24 76760 1043 20%
c W 57.76 682 30 31 3118 153045 17964 74% 25 76760 1043 20%
c - 58.80 682 29 32 3118 158443 14431 73% 25 76760 1043 20%
c - 60.68 682 29 33 3118 168343 13924 72% 25 76760 1043 20%
c I 61.15 682 29 33 3121 171050 15592 71% 25 76760 1043 20%
c - 62.81 682 29 34 3125 178543 14208 70% 25 76760 1043 20%
c 
c  seconds   reductions       redundant   irredundant
c          MB     restarts           trail      variables
c           level      conflicts         glue        remaining
c 
c ] 63.05 682 29 34 3125 179842 15025 70% 25 76760 1043 20%
c 1 63.05 682 29 34 3125 179842 15025 70% 25 76760 1043 20%
c 
c --- [ writing output ] -----------------------------------------------------
c 
c writing simplified CNF to DIMACS file 'simp/12.cubes870.adj.simp1'
c * 63.06 682 29 34 3125 179842 15025 70% 25 76760 1043 20%
c opening file to write 'simp/12.cubes870.adj.simp1'
c writing 'p cnf 5320 76760' header
c closing file 'simp/12.cubes870.adj.simp1'
c after writing 31375846 bytes 29.9 MB
c wrote 76760 clauses in 0.26 seconds process time
c 
c --- [ writing extension ] --------------------------------------------------
c 
c writing extension stack to 'simp/12.cubes870.adj.ext1'
c opening file to write 'simp/12.cubes870.adj.ext1'
c closing file 'simp/12.cubes870.adj.ext1'
c after writing 162529 bytes 0.2 MB
c wrote 7278 witnesses in 0.00 seconds process time
c 
c --- [ result ] -------------------------------------------------------------
c 
s SATISFIABLE
c 
c --- [ run-time profiling ] -------------------------------------------------
c 
c process time taken by individual solving procedures
c (percentage relative to process time for solving)
c 
c        48.58   89.43% search
c        26.92   49.56% unstable
c        19.89   36.62% stable
c         8.73   16.07% parse
c         5.74   10.57% simplify
c         1.79    3.30% probe
c         1.74    3.21% vivify
c         1.23    2.26% elim
c         1.01    1.85% walk
c         0.76    1.39% lucky
c         0.72    1.33% subsume
c         0.09    0.16% ternary
c   =================================
c        54.32   85.79% solve
c 
c last line shows process time for solving
c (percentage relative to total process time)
c 
c --- [ statistics ] ---------------------------------------------------------
c 
c chronological:             32245        17.93 %  of conflicts
c conflicts:                179842      3310.55    per second
c decisions:                356542      6563.27    per second
c eliminated:                 2683        50.43 %  of all variables
c fixed:                      1591        29.91 %  of all variables
c learned:                  175896        97.81 %  per conflict
c learned_lits:           33401378       100.00 %  learned literals
c minimized:                     0         0.00 %  learned literals
c shrunken:               19754002        59.14 %  learned literals
c minishrunken:            2909964         8.71 %  learned literals
c propagations:           13930382         0.26 M  per second
c reduced:                  107237        59.63 %  per conflict
c rephased:                     18      9991.22    interval
c restarts:                   3125        57.55    interval
c stabilizing:                   4        52.73 %  of conflicts
c substituted:                   3         0.06 %  of all variables
c subsumed:                  55957         2.47 %  of all clauses
c strengthened:              12103         0.53 %  of all clauses
c ternary:                    6863         0.58 %  of resolved
c vivified:                     60         0.00 %  of all clauses
c walked:                        5     35968.40    interval
c weakened:                   5687         3.09    average size
c 
c seconds are measured in process time for solving
c 
c --- [ resources ] ----------------------------------------------------------
c 
c total process time since initialization:        63.32    seconds
c total real time since initialization:           64.25    seconds
c maximum resident set size of process:          747.43    MB
c 
c --- [ shutting down ] ------------------------------------------------------
c 
c exit 10
WARNING! DIMACS header mismatch: wrong number of variables.
============================[ Problem Statistics ]=============================
|                                                                             |
|  Number of variables:          4281                                         |
|  Number of clauses:           76760                                         |
|  Parse time:                   0.51 s                                       |
|  Simplification time:          0.02 s                                       |
|                                                                             |
============================[ Search Statistics ]====================================================
| Conflicts |          ORIGINAL         |          LEARNT          | Num Sols |      SUBGRAPHS      |
|           |    Vars  Clauses Literals |    Limit  Clauses Lit/Cl |          | Canonical Noncanon. |
=====================================================================================================
|       100 |    4196    76760  6892117 |     2000      100    125 |        0 |        15         0 |
|       251 |    4196    76761  6892269 |     2000      251    109 |        0 |        35         1 |
|       603 |    4196    76888  6894623 |     2000      603     95 |        0 |        49       128 |
|       946 |    4196    76894  6894811 |     2000      946    102 |        0 |        63       134 |
|      1484 |    4196    76926  6895528 |     2000     1484    103 |        0 |        73       166 |
|      2271 |    4196    76954  6896228 |     3600     1271     86 |        0 |        95       194 |
|      3441 |    4196    76985  6897283 |     3600     2441     98 |        0 |       128       225 |
|      5277 |    4196    77113  6899750 |     5002     2479     67 |        0 |       198       353 |
|      8093 |    4196    77367  6904154 |     6304     2797     46 |        0 |       248       607 |
|     12031 |    4196    77461  6905840 |     7553     3584     48 |        0 |       264       701 |
|     18003 |    4196    77667  6909630 |     8783     5786     61 |        0 |       312       907 |
|     26859 |    4196    77874  6913275 |    11198     5257     42 |        0 |       337      1114 |
|     39995 |    4196    78036  6916114 |    13609     6604     39 |        0 |       373      1276 |
|     59899 |    4196    78479  6924315 |    16012    12311     59 |        0 |       529      1719 |
|     90067 |    4196    79455  6942962 |    19609    16676     69 |        0 |       828      2695 |
|    134757 |    4196    80356  6957500 |    24413    18570     58 |        0 |      1011      3596 |
|    202030 |    4196    81945  6982623 |    30417    18847     52 |        0 |      1603      5185 |
|    301510 |    4196    82899  6997921 |    36409    36319     72 |        0 |      1877      6139 |
|    450324 |    4196    83924  7016082 |    46019    22743     32 |        0 |      2252      7164 |
|    673949 |    4196    85866  7053400 |    55621    45570     59 |        0 |      2824      9106 |
|   1008803 |    4196    88195  7110258 |    68812    41615     53 |        0 |      3892     11435 |
|   1509675 |    4196    90279  7157691 |    84430    48505     49 |        0 |      4573     13519 |
|   2261263 |    4196    93685  7240772 |   103620    52883     39 |        0 |      5720     16925 |
|   3387622 |    4196    97770  7345691 |   126432    92454     57 |        0 |      6531     21010 |
|   5082870 |    4196   109607  7605811 |   155234   105304     52 |        0 |      8635     32847 |
|   7613983 |    4196   115604  7741058 |   190014   142397     59 |        0 |     10140     38844 |
|  11416100 |    4108    55484  4943482 |   231542    88683     55 |        0 |     13448     53286 |
=====================================================================================================
Number of solutions   : 0
Canonical subgraphs   : 13632          (15 /sec)
          order  3    : 1              (100000 /sec)
          order  4    : 1              (200000 /sec)
          order  5    : 1              (111111 /sec)
          order  6    : 1              (26316 /sec)
          order  7    : 1              (4000 /sec)
          order  8    : 2              (784 /sec)
          order  9    : 6              (204 /sec)
          order 10    : 23             (83 /sec)
          order 11    : 107            (26 /sec)
          order 12    : 434            (7 /sec)
          order 13    : 2008           (14 /sec)
          order 14    : 7094           (15 /sec)
          order 15    : 3395           (17 /sec)
          order 16    : 550            (16 /sec)
          order 17    : 5              (15 /sec)
          order 18    : 1              (10 /sec)
          order 19    : 1              (9 /sec)
          order 20    : 1              (9 /sec)
          order 21    : 0              (-nan /sec)
Noncanonical subgraphs: 53613          (1793 /sec)
          order  3    : 0              (-nan /sec)
          order  4    : 0              (-nan /sec)
          order  5    : 0              (-nan /sec)
          order  6    : 0              (-nan /sec)
          order  7    : 0              (-nan /sec)
          order  8    : 0              (-nan /sec)
          order  9    : 0              (-nan /sec)
          order 10    : 0              (-nan /sec)
          order 11    : 0              (-nan /sec)
          order 12    : 0              (-nan /sec)
          order 13    : 8199           (8442 /sec)
          order 14    : 24608          (5490 /sec)
          order 15    : 20393          (876 /sec)
          order 16    : 363            (648 /sec)
          order 17    : 49             (100 /sec)
          order 18    : 0              (-nan /sec)
          order 19    : 0              (-nan /sec)
          order 20    : 0              (-nan /sec)
Canonicity checking   : 899.585 s
Noncanonicity checking: 29.8988 s
Total canonicity time : 929.484 s
database reductions   : 194
restarts              : 16881
conflicts             : 11666587       (3009 /sec)
decisions             : 14868787       (0.00 % random) (3835 /sec)
propagations          : 652129322      (168199 /sec)
conflict literals     : 1216230039     (55.34 % deleted)
actual reward         : 0.222938
Memory used           : 231.00 MB
CPU time              : 3877.12 s

UNSATISFIABLE
